% intermedia, mantenimientos en diferentes momentos
n_jobs = 6;
n_machines = 3;
n_ops_for = [3, 2, 3, 2, 3, 2];

dur = array2d(1..6, 1..3, [
  3, 4, 2,
  5, 6, 0,
  4, 3, 5,
  6, 2, 0,
  3, 4, 3,
  5, 3, 0
]);

machine_for = array2d(1..6, 1..3, [
  1, 2, 3,
  2, 3, 0,
  3, 1, 2,
  1, 2, 0,
  2, 3, 1,
  3, 1, 0
]);

maint_start = [9, 12, 10];
maint_end   = [11, 14, 12];